8
0, 262, 532, 518, 423, 181, 461, 540
262, 0, 404, 574, 530, 416, 689, 346
532, 404, 0, 366, 422, 567, 990, 145
518, 574, 366, 0, 125, 427, 884, 500
423, 530, 422, 125, 0, 310, 762, 536
181, 416, 567, 427, 310, 0, 459, 618
461, 689, 990, 884, 762, 459, 0, 1000
540, 346, 145, 500, 536, 618, 1000, 0
